Solver command line: ['C:\\Users\\Gabriela Escobar\\anaconda3\\envs\\pyomo_env\\Library\\bin\\glpsol.exe', '--write', 'C:\\Users\\GABRIE~1\\AppData\\Local\\Temp\\tmph4zrh_tn.glpk.raw', '--wglp', 'C:\\Users\\GABRIE~1\\AppData\\Local\\Temp\\tmp85hn0c5l.glpk.glp', '--cpxlp', 'C:\\Users\\GABRIE~1\\AppData\\Local\\Temp\\tmpodhc601f.pyomo.lp']

GLPSOL--GLPK LP/MIP Solver 5.0
Parameter(s) specified in the command line:
 --write C:\Users\GABRIE~1\AppData\Local\Temp\tmph4zrh_tn.glpk.raw --wglp
 C:\Users\GABRIE~1\AppData\Local\Temp\tmp85hn0c5l.glpk.glp --cpxlp C:\Users\GABRIE~1\AppData\Local\Temp\tmpodhc601f.pyomo.lp
Reading problem data from 'C:\Users\GABRIE~1\AppData\Local\Temp\tmpodhc601f.pyomo.lp'...
501 rows, 501 columns, 250001 non-zeros
252512 lines were read
Writing problem data to 'C:\Users\GABRIE~1\AppData\Local\Temp\tmp85hn0c5l.glpk.glp'...
252007 lines were written
GLPK Simplex Optimizer 5.0
501 rows, 501 columns, 250001 non-zeros
Preprocessing...
500 rows, 500 columns, 250000 non-zeros
Scaling...
 A: min|aij| =  1.974e-06  max|aij| =  5.000e+00  ratio =  2.533e+06
GM: min|aij| =  1.682e-03  max|aij| =  5.946e+02  ratio =  3.535e+05
EQ: min|aij| =  2.950e-06  max|aij| =  1.000e+00  ratio =  3.390e+05
Constructing initial basis...
Size of triangular part is 500
*     0: obj =  -0.000000000e+00 inf =   0.000e+00 (500)
*   345: obj =   2.156338399e+03 inf =   0.000e+00 (0) 3
OPTIMAL LP SOLUTION FOUND
Time used:   0.6 secs
Memory used: 40.8 Mb (42786964 bytes)
Writing basic solution to 'C:\Users\GABRIE~1\AppData\Local\Temp\tmph4zrh_tn.glpk.raw'...
1011 lines were written

